data/mip_solutions/furman_sahinidis/reduced_transportation/28sp-as1_gurobi.sol
Elapsed time: 0.226055860519
Nodes explored: 0
Upper bound: 30.0
Lower bound: 29.0
y[0,0]=1
y[0,1]=1
y[1,0]=1
y[1,1]=1
y[1,12]=1
y[2,12]=1
y[3,12]=1
y[4,12]=1
y[5,12]=1
y[6,12]=1
y[7,0]=1
y[8,12]=1
y[9,12]=1
y[10,12]=1
y[11,12]=1
y[12,12]=1
y[13,0]=1
y[14,12]=1
y[15,12]=1
y[16,1]=1
y[16,2]=1
y[16,3]=1
y[16,4]=1
y[16,5]=1
y[16,6]=1
y[16,7]=1
y[16,8]=1
y[16,9]=1
y[16,10]=1
y[16,11]=1
q[0,1,1,1]=900.0
q[0,1,1,7]=-7.93745122072e-14
q[0,1,3,1]=4.06430444855e-12
q[0,2,1,5]=210.0
q[0,2,1,7]=60.0000000001
q[0,3,1,6]=30.0
q[0,4,1,7]=150.0
q[0,5,1,7]=150.0
q[0,6,1,7]=60.0
q[0,7,1,7]=840.0
q[0,8,0,8]=970.0
q[0,8,0,9]=20.0
q[0,9,0,9]=60.0
q[0,10,0,10]=150.0
q[0,11,0,11]=150.0
q[0,12,0,12]=60.0
q[0,13,0,13]=690.0
q[1,2,0,4]=200.0
q[1,2,1,4]=205.0
q[1,3,1,7]=45.0
q[1,4,0,5]=200.0
q[1,4,1,5]=25.0
q[1,5,0,7]=225.0
q[1,6,0,6]=80.0
q[1,6,1,7]=10.0
q[1,7,0,7]=895.0
q[1,7,1,7]=365.0
q[1,8,0,8]=350.0
q[1,8,0,10]=50.0
q[1,8,12,14]=1085.0
q[1,9,0,12]=20.0
q[1,9,12,14]=70.0
q[1,10,12,14]=225.0
q[1,11,0,11]=50.0
q[1,11,12,14]=175.0
q[1,12,12,14]=90.0
q[1,13,0,13]=1418.34
q[1,13,12,14]=966.66
q[1,14,12,14]=450.0
q[2,11,12,14]=0.5
q[2,12,12,14]=0.2
q[2,13,12,14]=5.3
q[2,14,12,14]=0.5
q[3,10,12,14]=0.5
q[3,11,12,14]=0.5
q[3,12,12,14]=0.2
q[3,13,12,14]=5.3
q[3,14,12,14]=1.0
q[4,12,12,14]=0.2
q[4,13,12,14]=5.3
q[4,14,12,14]=1.0
q[5,11,12,14]=0.5
q[5,12,12,14]=0.2
q[5,13,12,14]=5.3
q[5,14,12,14]=0.8
q[6,9,12,14]=0.2
q[6,10,12,14]=0.5
q[6,11,12,14]=0.5
q[6,12,12,14]=0.2
q[6,13,12,14]=5.3
q[6,14,12,14]=0.2
q[7,13,0,13]=6.36
q[8,11,12,14]=0.5
q[8,12,12,14]=0.2
q[8,13,12,14]=5.3
q[8,14,12,14]=0.5
q[9,10,12,14]=0.5
q[9,11,12,14]=0.5
q[9,12,12,14]=0.2
q[9,13,12,14]=5.3
q[9,14,12,14]=1.0
q[10,12,12,14]=0.2
q[10,13,12,14]=5.3
q[10,14,12,14]=1.0
q[11,11,12,14]=0.5
q[11,12,12,14]=0.2
q[11,13,12,14]=5.3
q[11,14,12,14]=0.8
q[12,9,12,14]=0.2
q[12,10,12,14]=0.5
q[12,11,12,14]=0.5
q[12,12,12,14]=0.2
q[12,13,12,14]=5.3
q[12,14,12,14]=0.2
q[13,13,0,13]=5.3
q[14,10,12,14]=0.5
q[14,11,12,14]=0.5
q[14,12,12,14]=0.2
q[14,13,12,14]=5.3
q[14,14,12,14]=0.8
q[15,9,12,14]=0.2
q[15,10,12,14]=0.5
q[15,11,12,14]=0.5
q[15,12,12,14]=0.2
q[15,13,12,14]=5.3
q[15,14,12,14]=0.7
q[16,0,1,0]=3600.0
q[16,0,1,1]=900.0
q[16,0,1,2]=540.0
q[16,0,1,3]=60.0
q[16,0,1,4]=95.0
q[16,0,1,5]=65.0000000001
q[16,0,1,6]=90.0
q[16,0,2,0]=5.0
q[16,0,2,1]=3.0
q[16,0,2,2]=0.9
q[16,0,2,3]=0.1
q[16,0,2,4]=0.5
q[16,0,2,5]=0.5
q[16,0,3,0]=4.5
q[16,0,3,1]=3.0
q[16,0,3,2]=0.9
q[16,0,3,3]=0.1
q[16,0,3,4]=0.500000000004
q[16,0,4,0]=5.5
q[16,0,4,1]=3.0
q[16,0,4,2]=0.9
q[16,0,4,3]=0.1
q[16,0,5,0]=5.7
q[16,0,5,1]=3.0
q[16,0,5,2]=0.9
q[16,0,5,3]=0.1
q[16,0,5,4]=0.5
q[16,0,5,5]=0.5
q[16,0,5,6]=0.2
q[16,0,6,0]=4.7
q[16,0,6,1]=3.0
q[16,0,6,2]=0.9
q[16,0,7,0]=5.0
q[16,0,7,1]=3.0
q[16,0,7,2]=0.9
q[16,0,7,3]=0.1
q[16,0,7,4]=0.5
q[16,0,7,5]=0.5
q[16,0,8,0]=4.5
q[16,0,8,1]=3.0
q[16,0,8,2]=0.9
q[16,0,8,3]=0.1
q[16,0,8,4]=0.5
q[16,0,9,0]=5.5
q[16,0,9,1]=3.0
q[16,0,9,2]=0.9
q[16,0,9,3]=0.1
q[16,0,10,0]=5.7
q[16,0,10,1]=3.0
q[16,0,10,2]=0.9
q[16,0,10,3]=0.1
q[16,0,10,4]=0.5
q[16,0,10,5]=0.5
q[16,0,10,6]=0.2
q[16,0,11,0]=4.7
q[16,0,11,1]=3.0
q[16,0,11,2]=0.9
